nb_edges = 45;
e_name = ["aa", "ab", "ac", "ad", "ae", "af", "ag", "ah", "ai", "aj", "ak", "al", "am", "an", "ao", "ap", "aq", "ar", "as", "at", "au", "av", "aw", "ax", "ay", "az", "ba", "bb", "bc", "bd", "be", "bf", "bg", "bh", "bi", "bj", "bk", "bl", "bm", "bn", "bo", "bp", "bq", "br", "bs"];
e_type = [border, border, inter, inter, inter, inter, inter, inter, inter, inter, inter, inter, inter, inter, inter, platform, platform, platform, platform, platform, platform, platform, platform, platform, platform, platform, platform, platform, platform, platform, inter, inter, inter, inter, inter, inter, inter, inter, inter, inter, inter, inter, inter, border, border];
e_cols = [{1},{2},{3},{4},{5},{6},{6},{7},{8,9},{8},{8},{9},{9},{9},{9},{10},{10},{10},{10},{10},{11},{11},{11},{11},{11},{12},{12},{12},{12},{12},{13,14},{15},{16},{17},{18},{19},{20},{21},{22},{23},{24},{25},{26},{27},{28}];
nb_trains = 1;
t_name = ["T1"];
t_routes = [{1,2,3,4,5}];
t_est = [5];
t_type = [dest];
nb_routes = 5;
r_name = ["IW1", "IW2", "IW3", "IW4", "IW5"];
r_it_1 = ["IW1", "IW2", "IW3", "IW4", "IW5"];
r_it_2 = ["", "", "", "", ""];
r_platform_name = ["S_I", "S_II", "S_III", "S_IV", "S_V"];
r_dwell_min = [1, 1, 1, 1, 1];
r_dur_min = [5, 5, 5, 5, 5];
r_overlap = [0, 0, 0, 0, 0];
r_block_start = [1, 8, 16, 24, 32];
r_block_end = [7, 15, 23, 31, 39];
r_train = [1, 1, 1, 1, 1];
nb_blocks = 39;
b_edge = [1, 3, 6, 9, 16, 21, 26, 1, 3, 6, 10, 12, 17, 22, 27, 1, 3, 6, 10, 13, 18, 23, 28, 1, 3, 7, 11, 14, 19, 24, 29, 1, 3, 7, 11, 15, 20, 25, 30];
b_dur = [0, 1, 2, 2, 3, 4, 5, 0, 1, 1, 2, 3, 3, 4, 5, 0, 1, 1, 2, 3, 3, 4, 5, 0, 1, 1, 2, 3, 3, 4, 5, 0, 1, 1, 2, 3, 3, 4, 5];
b_start_offset = [0, 0, -1, -2, -2, -3, -4, 0, 0, -1, -1, -2, -3, -3, -4, 0, 0, -1, -1, -2, -3, -3, -4, 0, 0, -1, -1, -2, -3, -3, -4, 0, 0, -1, -1, -2, -3, -3, -4];
b_stop = [false, false, false, false, false, false, true, false, false, false, false, false, false, false, true, false, false, false, false, false, false, false, true, false, false, false, false, false, false, false, true, false, false, false, false, false, false, false, true];
b_route = [1, 1, 1, 1, 1, 1, 1, 2, 2, 2, 2, 2, 2, 2, 2, 3, 3, 3, 3, 3, 3, 3, 3, 4, 4, 4, 4, 4, 4, 4, 4, 5, 5, 5, 5, 5, 5, 5, 5];
